jobs  (incl. supersource/sink ):	102
RESOURCES
- renewable                 : 2 R
- nonrenewable              : 2 N
- doubly constrained        : 0 D
************************************************************************
PRECEDENCE RELATIONS:
jobnr.    #modes  #successors   successors
1	1	13		2 3 4 6 7 8 9 10 11 12 15 17 23 
2	9	8		47 33 30 21 18 16 13 5 
3	9	13		55 54 48 47 42 40 34 33 28 26 19 16 14 
4	9	15		51 47 43 41 40 36 34 32 30 29 27 26 25 24 22 
5	9	11		52 50 42 39 36 32 29 25 22 20 19 
6	9	10		55 52 51 47 43 33 32 30 21 16 
7	9	16		66 55 52 51 50 47 45 43 41 38 37 36 35 32 31 29 
8	9	9		52 51 47 46 34 33 25 24 16 
9	9	14		66 52 51 50 43 42 39 38 37 36 35 32 29 21 
10	9	13		55 53 52 51 49 46 41 40 34 33 32 26 24 
11	9	14		61 57 54 51 50 49 46 45 42 41 40 36 34 26 
12	9	10		56 55 51 50 48 46 41 36 25 21 
13	9	11		57 54 53 51 50 49 48 46 45 41 26 
14	9	13		69 66 61 57 53 52 49 46 45 44 43 38 37 
15	9	10		57 52 51 49 45 42 40 37 36 33 
16	9	7		69 61 58 41 37 29 27 
17	9	11		61 57 56 55 54 53 49 45 44 40 34 
18	9	9		69 68 66 55 50 45 43 42 32 
19	9	9		86 66 64 53 51 45 43 37 35 
20	9	7		58 54 49 45 40 38 34 
21	9	13		79 69 68 65 63 62 59 58 57 54 49 45 44 
22	9	12		86 77 69 68 66 65 64 63 59 58 48 45 
23	9	10		68 65 64 63 62 61 55 49 45 40 
24	9	6		76 68 63 45 44 38 
25	9	11		79 69 68 65 63 62 60 57 54 49 44 
26	9	8		101 79 69 67 59 58 44 37 
27	9	7		68 66 59 56 50 45 44 
28	9	10		101 78 76 71 69 68 67 64 61 38 
29	9	9		101 73 68 62 60 57 53 49 44 
30	9	11		101 86 78 77 73 69 68 65 63 48 46 
31	9	9		78 76 69 63 62 59 56 54 46 
32	9	11		101 86 79 78 74 73 65 64 60 58 48 
33	9	7		101 83 71 68 63 61 38 
34	9	12		85 78 73 69 68 67 66 65 64 63 62 59 
35	9	12		101 77 76 73 72 70 69 68 67 65 60 59 
36	9	5		84 76 68 67 44 
37	9	8		83 75 74 71 68 63 62 56 
38	9	8		100 85 79 75 72 62 59 56 
39	9	7		95 85 77 70 64 59 54 
40	9	14		101 100 99 86 84 82 77 76 75 74 73 72 70 69 
41	9	11		101 100 99 85 84 78 74 72 70 67 60 
42	9	10		101 100 86 77 75 74 73 71 63 62 
43	9	6		85 73 72 62 59 58 
44	9	12		100 99 98 86 85 80 77 75 74 72 71 64 
45	9	8		101 85 81 78 73 70 67 60 
46	9	7		99 85 84 75 74 70 60 
47	9	9		100 99 97 86 84 76 74 73 63 
48	9	6		97 85 76 72 62 61 
49	9	14		99 98 97 96 93 86 84 83 82 81 77 76 75 72 
50	9	12		100 98 93 84 82 80 79 77 76 75 74 72 
51	9	12		101 99 96 93 92 85 84 82 80 76 75 69 
52	9	11		100 99 98 97 92 80 76 75 74 73 72 
53	9	10		98 93 91 83 81 80 79 78 71 67 
54	9	10		101 100 99 92 84 83 81 80 73 67 
55	9	10		99 96 95 92 91 76 75 73 71 70 
56	9	8		99 98 97 96 81 77 73 65 
57	9	9		98 93 92 91 90 83 81 80 67 
58	9	8		96 95 93 81 80 76 75 71 
59	9	9		99 94 93 92 88 87 84 82 74 
60	9	8		95 94 93 92 91 83 80 71 
61	9	9		100 99 96 95 90 87 84 81 80 
62	9	7		99 94 93 92 91 87 70 
63	9	7		98 94 93 92 90 80 72 
64	9	7		96 93 92 90 89 88 83 
65	9	7		95 94 91 90 89 88 87 
66	9	6		98 96 93 91 88 81 
67	9	5		97 96 89 88 75 
68	9	6		100 98 95 92 90 89 
69	9	5		97 95 89 88 83 
70	9	3		98 89 80 
71	9	3		97 89 82 
72	9	3		95 91 87 
73	9	3		93 90 88 
74	9	2		96 81 
75	9	2		94 87 
76	9	2		90 89 
77	9	2		92 88 
78	9	2		95 92 
79	9	2		88 87 
80	9	1		88 
81	9	1		89 
82	9	1		90 
83	9	1		87 
84	9	1		91 
85	9	1		87 
86	9	1		87 
87	9	1		102 
88	9	1		102 
89	9	1		102 
90	9	1		102 
91	9	1		102 
92	9	1		102 
93	9	1		102 
94	9	1		102 
95	9	1		102 
96	9	1		102 
97	9	1		102 
98	9	1		102 
99	9	1		102 
100	9	1		102 
101	9	1		102 
102	1	0		
************************************************************************
REQUESTS/DURATIONS
jobnr.	mode	dur	R1	R2	N1	N2	
------------------------------------------------------------------------
1	1	0	0	0	0	0	
2	1	2	1	5	13	19	
	2	3	1	4	13	17	
	3	4	1	3	13	15	
	4	5	1	3	13	14	
	5	10	1	2	12	11	
	6	20	1	2	12	9	
	7	25	1	1	11	8	
	8	26	1	1	11	6	
	9	27	1	1	11	5	
3	1	2	1	4	28	27	
	2	4	1	3	27	27	
	3	10	1	3	27	26	
	4	11	1	3	27	25	
	5	14	1	3	27	24	
	6	25	1	2	27	25	
	7	26	1	2	27	24	
	8	27	1	2	27	23	
	9	28	1	2	27	22	
4	1	5	5	3	21	24	
	2	6	4	3	19	24	
	3	8	4	3	16	24	
	4	9	4	3	14	24	
	5	14	3	3	14	23	
	6	15	3	3	13	23	
	7	21	3	3	11	23	
	8	22	3	3	7	23	
	9	26	3	3	6	23	
5	1	3	2	3	26	20	
	2	4	2	2	22	20	
	3	9	2	2	22	19	
	4	10	2	2	19	20	
	5	11	2	2	19	19	
	6	12	2	2	16	19	
	7	14	2	2	15	19	
	8	20	2	2	15	18	
	9	26	2	2	12	18	
6	1	5	4	3	17	17	
	2	9	4	2	16	16	
	3	13	4	2	15	16	
	4	14	4	2	14	14	
	5	15	4	1	14	13	
	6	19	4	1	14	12	
	7	22	4	1	13	12	
	8	25	4	1	12	11	
	9	28	4	1	12	10	
7	1	4	5	2	9	14	
	2	5	4	2	8	14	
	3	8	4	2	8	13	
	4	9	3	2	8	14	
	5	13	3	2	7	14	
	6	14	3	2	7	13	
	7	17	2	2	7	14	
	8	25	2	2	7	13	
	9	27	2	2	7	12	
8	1	3	3	5	16	28	
	2	4	2	4	15	26	
	3	8	2	4	13	24	
	4	9	2	3	12	24	
	5	10	1	3	10	21	
	6	12	1	3	9	20	
	7	23	1	3	6	18	
	8	26	1	2	6	16	
	9	28	1	2	4	15	
9	1	3	1	4	30	21	
	2	11	1	3	29	20	
	3	12	1	3	27	20	
	4	13	1	3	26	18	
	5	18	1	3	25	18	
	6	20	1	2	25	17	
	7	25	1	2	23	16	
	8	26	1	2	23	15	
	9	28	1	2	21	14	
10	1	1	4	4	26	27	
	2	2	4	4	25	27	
	3	3	4	4	21	27	
	4	8	3	4	17	27	
	5	9	2	3	17	26	
	6	10	2	3	11	26	
	7	24	2	3	11	25	
	8	28	1	3	6	26	
	9	29	1	3	4	26	
11	1	5	5	2	17	10	
	2	9	4	2	17	8	
	3	15	4	2	17	7	
	4	17	4	2	17	6	
	5	18	4	2	17	5	
	6	19	4	1	17	5	
	7	23	4	1	17	4	
	8	29	4	1	17	3	
	9	30	4	1	17	2	
12	1	3	3	1	23	13	
	2	12	3	1	23	12	
	3	18	3	1	23	11	
	4	23	3	1	22	12	
	5	24	3	1	22	11	
	6	26	3	1	22	10	
	7	27	3	1	21	11	
	8	28	3	1	21	10	
	9	29	3	1	21	9	
13	1	3	3	4	26	25	
	2	4	3	3	24	24	
	3	8	3	3	24	23	
	4	9	3	3	20	23	
	5	10	3	3	19	23	
	6	12	3	3	17	23	
	7	18	3	3	14	23	
	8	24	3	3	13	22	
	9	25	3	3	10	22	
14	1	3	3	5	13	19	
	2	5	3	4	13	16	
	3	7	3	4	11	15	
	4	8	3	4	10	11	
	5	12	3	4	10	10	
	6	14	3	4	9	9	
	7	15	3	4	9	6	
	8	24	3	4	8	5	
	9	25	3	4	7	1	
15	1	3	4	3	15	29	
	2	6	3	3	13	28	
	3	7	3	3	12	28	
	4	11	3	3	12	27	
	5	12	2	3	10	26	
	6	13	2	3	8	26	
	7	14	2	3	7	26	
	8	24	2	3	5	24	
	9	30	2	3	4	24	
16	1	3	4	1	25	21	
	2	4	4	1	25	20	
	3	7	4	1	24	19	
	4	12	4	1	24	18	
	5	17	4	1	23	19	
	6	18	4	1	23	18	
	7	19	4	1	22	17	
	8	23	4	1	22	16	
	9	27	4	1	22	15	
17	1	2	5	2	29	28	
	2	5	5	2	29	26	
	3	9	5	2	28	24	
	4	10	5	2	26	23	
	5	13	5	2	25	21	
	6	14	5	2	25	20	
	7	15	5	2	23	19	
	8	18	5	2	23	17	
	9	20	5	2	22	17	
18	1	6	4	4	23	29	
	2	7	4	3	21	28	
	3	12	4	3	19	28	
	4	22	3	3	18	28	
	5	24	3	3	17	28	
	6	25	3	2	15	28	
	7	27	3	2	14	28	
	8	28	2	2	12	28	
	9	30	2	2	11	28	
19	1	5	3	3	3	10	
	2	9	2	3	2	11	
	3	10	2	3	2	10	
	4	14	2	3	2	9	
	5	17	2	3	2	8	
	6	18	2	3	1	9	
	7	22	2	3	1	8	
	8	28	2	3	1	7	
	9	30	2	3	1	6	
20	1	7	2	3	10	19	
	2	9	1	3	10	16	
	3	16	1	3	10	15	
	4	17	1	3	10	14	
	5	20	1	3	9	11	
	6	21	1	3	9	7	
	7	22	1	3	9	6	
	8	23	1	3	9	3	
	9	26	1	3	9	2	
21	1	6	4	3	27	26	
	2	7	3	3	24	24	
	3	8	3	3	20	22	
	4	9	3	3	18	21	
	5	13	3	3	16	19	
	6	17	3	3	11	17	
	7	20	3	3	8	17	
	8	26	3	3	5	15	
	9	28	3	3	4	13	
22	1	2	3	3	24	30	
	2	7	2	2	22	27	
	3	8	2	2	19	27	
	4	10	2	2	19	25	
	5	12	2	2	14	22	
	6	18	1	2	13	22	
	7	23	1	2	11	21	
	8	27	1	2	8	19	
	9	29	1	2	5	17	
23	1	3	3	5	7	24	
	2	4	3	5	5	23	
	3	14	3	5	5	21	
	4	15	2	5	5	21	
	5	16	2	5	4	20	
	6	17	2	5	3	18	
	7	21	2	5	3	16	
	8	29	1	5	2	16	
	9	30	1	5	1	15	
24	1	6	3	5	9	16	
	2	8	3	4	8	15	
	3	16	3	4	8	14	
	4	24	3	4	8	13	
	5	25	3	4	7	14	
	6	26	2	4	6	13	
	7	27	2	4	6	12	
	8	28	2	4	6	11	
	9	29	2	4	5	12	
25	1	2	1	3	26	27	
	2	3	1	3	26	22	
	3	14	1	3	25	22	
	4	15	1	2	23	18	
	5	16	1	2	22	14	
	6	18	1	2	21	11	
	7	24	1	1	20	9	
	8	25	1	1	18	6	
	9	27	1	1	16	4	
26	1	4	4	4	28	6	
	2	5	3	4	25	5	
	3	12	3	4	24	5	
	4	13	3	3	24	5	
	5	19	3	2	22	5	
	6	21	2	2	21	5	
	7	23	2	2	20	5	
	8	25	2	1	20	5	
	9	29	2	1	18	5	
27	1	1	3	5	6	25	
	2	2	3	5	5	23	
	3	11	3	5	5	22	
	4	12	3	5	5	21	
	5	13	3	5	4	20	
	6	14	3	5	4	19	
	7	15	3	5	3	19	
	8	16	3	5	3	17	
	9	27	3	5	3	16	
28	1	8	1	4	22	24	
	2	9	1	4	21	22	
	3	11	1	3	19	19	
	4	15	1	3	19	15	
	5	19	1	3	16	13	
	6	22	1	2	16	11	
	7	26	1	2	15	8	
	8	27	1	1	13	5	
	9	29	1	1	12	3	
29	1	5	5	2	20	26	
	2	9	4	2	19	25	
	3	10	3	2	19	23	
	4	11	3	2	19	19	
	5	17	2	2	19	16	
	6	23	2	2	18	14	
	7	28	2	2	18	13	
	8	29	1	2	18	11	
	9	30	1	2	18	8	
30	1	2	3	4	23	14	
	2	4	3	3	18	14	
	3	5	3	3	16	14	
	4	7	2	2	15	13	
	5	8	2	2	11	13	
	6	11	2	2	11	12	
	7	17	1	1	7	12	
	8	19	1	1	6	12	
	9	26	1	1	4	12	
31	1	3	4	3	14	29	
	2	8	4	3	12	29	
	3	10	3	3	10	29	
	4	19	3	3	10	28	
	5	20	3	3	8	29	
	6	22	2	3	7	28	
	7	24	2	3	5	28	
	8	25	1	3	4	28	
	9	26	1	3	3	28	
32	1	2	4	4	14	17	
	2	3	4	3	13	15	
	3	4	4	3	13	14	
	4	12	4	3	13	13	
	5	13	4	2	12	10	
	6	16	4	2	12	8	
	7	17	4	2	11	5	
	8	20	4	2	11	4	
	9	23	4	2	11	3	
33	1	1	4	4	17	24	
	2	2	4	4	13	23	
	3	4	4	4	13	22	
	4	8	4	4	10	22	
	5	9	3	3	10	21	
	6	10	3	3	8	21	
	7	13	3	3	5	20	
	8	20	3	2	5	20	
	9	29	3	2	3	20	
34	1	1	2	4	27	20	
	2	3	2	4	26	19	
	3	7	2	3	25	18	
	4	8	2	3	24	18	
	5	12	2	2	24	16	
	6	13	2	2	23	15	
	7	14	2	2	23	14	
	8	22	2	1	23	12	
	9	25	2	1	22	11	
35	1	1	3	4	30	24	
	2	2	2	4	28	23	
	3	3	2	3	28	23	
	4	4	2	3	28	22	
	5	6	2	2	27	21	
	6	7	1	2	27	21	
	7	26	1	2	26	21	
	8	28	1	1	26	20	
	9	29	1	1	25	20	
36	1	3	4	4	29	28	
	2	9	3	4	26	25	
	3	10	3	4	25	23	
	4	11	3	3	24	21	
	5	16	2	3	22	16	
	6	24	2	2	21	14	
	7	25	2	1	17	13	
	8	27	2	1	16	10	
	9	28	2	1	15	5	
37	1	4	3	3	29	9	
	2	6	2	3	29	7	
	3	7	2	3	27	6	
	4	15	2	3	26	6	
	5	20	1	3	25	6	
	6	21	1	3	25	5	
	7	26	1	3	24	4	
	8	27	1	3	23	3	
	9	28	1	3	22	2	
38	1	5	4	1	29	10	
	2	7	3	1	28	10	
	3	8	3	1	28	9	
	4	9	2	1	28	10	
	5	14	2	1	27	10	
	6	15	2	1	26	10	
	7	16	2	1	26	9	
	8	18	1	1	25	10	
	9	19	1	1	25	9	
39	1	3	5	2	25	8	
	2	4	5	2	22	7	
	3	7	5	2	21	6	
	4	9	5	2	18	5	
	5	10	5	2	18	4	
	6	11	5	2	15	4	
	7	15	5	2	13	3	
	8	20	5	2	12	2	
	9	21	5	2	9	1	
40	1	5	4	4	16	22	
	2	15	4	3	15	22	
	3	19	4	3	13	20	
	4	20	4	3	13	19	
	5	21	4	3	12	19	
	6	22	4	2	11	18	
	7	23	4	2	10	18	
	8	27	4	2	8	17	
	9	29	4	2	7	16	
41	1	1	3	1	29	18	
	2	6	3	1	29	17	
	3	8	3	1	28	16	
	4	10	3	1	28	14	
	5	11	3	1	27	13	
	6	14	2	1	26	10	
	7	24	2	1	26	9	
	8	25	2	1	25	7	
	9	27	2	1	25	5	
42	1	12	5	3	25	6	
	2	15	4	3	22	5	
	3	19	4	3	19	5	
	4	20	4	3	14	5	
	5	22	4	3	11	4	
	6	23	4	3	9	4	
	7	24	4	3	6	4	
	8	25	4	3	4	3	
	9	26	4	3	1	3	
43	1	4	5	3	25	26	
	2	8	5	2	23	23	
	3	12	5	2	21	23	
	4	18	5	2	18	17	
	5	19	5	2	17	17	
	6	23	5	2	17	14	
	7	24	5	2	15	11	
	8	25	5	2	12	7	
	9	26	5	2	11	4	
44	1	2	3	1	23	26	
	2	5	3	1	22	24	
	3	6	3	1	22	23	
	4	7	3	1	21	22	
	5	10	3	1	21	20	
	6	11	3	1	21	18	
	7	17	3	1	20	17	
	8	19	3	1	20	16	
	9	20	3	1	20	15	
45	1	6	5	4	26	28	
	2	9	4	4	26	28	
	3	10	4	4	24	27	
	4	22	3	4	21	27	
	5	24	3	4	20	25	
	6	28	3	4	20	24	
	7	28	2	4	17	25	
	8	29	2	4	15	24	
	9	30	2	4	15	23	
46	1	3	3	4	24	8	
	2	6	3	4	24	7	
	3	7	3	4	22	7	
	4	8	3	3	21	7	
	5	9	2	3	20	7	
	6	11	2	3	17	7	
	7	12	2	2	15	7	
	8	21	1	2	15	7	
	9	30	1	2	14	7	
47	1	6	1	4	25	24	
	2	8	1	3	25	22	
	3	13	1	3	25	20	
	4	14	1	3	24	20	
	5	15	1	2	24	17	
	6	18	1	2	23	17	
	7	19	1	2	22	14	
	8	21	1	2	22	13	
	9	29	1	2	22	11	
48	1	4	5	2	26	9	
	2	5	4	2	25	9	
	3	6	3	2	22	7	
	4	8	3	2	16	6	
	5	11	3	2	15	6	
	6	18	2	2	11	5	
	7	20	1	2	7	3	
	8	22	1	2	7	2	
	9	25	1	2	3	2	
49	1	1	3	5	24	25	
	2	2	2	4	22	23	
	3	3	2	4	19	21	
	4	10	2	3	19	20	
	5	20	1	3	17	19	
	6	22	1	3	13	16	
	7	23	1	3	9	16	
	8	24	1	2	7	14	
	9	29	1	2	5	13	
50	1	1	3	5	7	24	
	2	2	2	4	7	24	
	3	20	2	4	5	24	
	4	23	2	4	4	24	
	5	26	2	4	4	23	
	6	28	1	4	3	24	
	7	29	1	4	2	24	
	8	29	1	4	1	25	
	9	30	1	4	1	24	
51	1	1	2	4	28	14	
	2	4	2	4	28	13	
	3	7	2	4	28	12	
	4	10	2	4	28	11	
	5	19	2	4	28	10	
	6	20	2	4	28	9	
	7	21	2	4	28	8	
	8	25	2	4	28	7	
	9	26	2	4	28	6	
52	1	1	4	4	20	4	
	2	3	4	4	20	3	
	3	9	4	4	19	3	
	4	13	4	4	18	2	
	5	15	4	3	17	2	
	6	18	4	3	15	2	
	7	23	4	2	14	2	
	8	25	4	2	14	1	
	9	30	4	2	13	1	
53	1	3	5	3	25	28	
	2	5	4	3	23	28	
	3	6	4	3	22	26	
	4	12	3	3	21	25	
	5	13	2	3	19	24	
	6	19	2	3	17	23	
	7	23	1	3	17	22	
	8	24	1	3	14	19	
	9	27	1	3	14	18	
54	1	4	5	2	24	16	
	2	5	4	2	23	15	
	3	7	4	2	22	15	
	4	15	4	2	21	15	
	5	16	3	2	19	15	
	6	17	3	1	18	14	
	7	18	3	1	18	13	
	8	19	3	1	16	14	
	9	23	3	1	16	13	
55	1	1	3	5	17	25	
	2	2	2	4	16	24	
	3	4	2	4	16	23	
	4	5	2	4	16	22	
	5	6	2	3	16	21	
	6	7	1	3	16	21	
	7	8	1	3	16	19	
	8	13	1	3	16	18	
	9	20	1	3	16	17	
56	1	8	3	4	13	25	
	2	9	3	3	11	23	
	3	16	3	3	11	22	
	4	17	3	3	9	20	
	5	20	2	3	9	18	
	6	21	2	3	7	17	
	7	24	1	3	6	17	
	8	25	1	3	6	16	
	9	30	1	3	4	15	
57	1	5	4	2	7	24	
	2	6	3	2	5	23	
	3	7	3	2	5	22	
	4	8	2	2	5	21	
	5	14	2	2	4	20	
	6	19	2	2	3	20	
	7	20	2	2	3	19	
	8	21	1	2	2	17	
	9	22	1	2	1	17	
58	1	2	4	5	9	21	
	2	10	4	4	8	19	
	3	11	4	4	8	18	
	4	12	3	4	7	16	
	5	18	3	3	7	16	
	6	20	3	3	6	15	
	7	23	3	3	6	13	
	8	24	2	2	5	12	
	9	28	2	2	4	9	
59	1	14	1	4	19	22	
	2	15	1	3	16	21	
	3	16	1	3	16	20	
	4	18	1	2	14	20	
	5	19	1	2	12	20	
	6	25	1	2	10	20	
	7	26	1	2	8	19	
	8	28	1	1	6	19	
	9	29	1	1	5	19	
60	1	5	5	2	27	29	
	2	7	4	1	26	23	
	3	10	4	1	23	23	
	4	11	4	1	21	19	
	5	16	3	1	21	17	
	6	24	3	1	18	16	
	7	25	3	1	15	12	
	8	26	2	1	14	8	
	9	30	2	1	12	6	
61	1	1	5	4	24	18	
	2	6	5	3	24	16	
	3	7	5	3	22	16	
	4	8	5	2	20	14	
	5	12	5	2	18	14	
	6	13	5	2	14	12	
	7	14	5	2	13	12	
	8	17	5	1	10	10	
	9	24	5	1	9	10	
62	1	5	2	4	4	26	
	2	6	1	3	4	24	
	3	9	1	3	4	23	
	4	12	1	3	4	20	
	5	13	1	3	4	16	
	6	15	1	3	4	15	
	7	20	1	3	4	12	
	8	23	1	3	4	11	
	9	26	1	3	4	9	
63	1	7	2	4	25	27	
	2	8	2	4	20	27	
	3	10	2	4	19	25	
	4	11	2	3	18	24	
	5	15	2	2	15	22	
	6	18	2	2	13	21	
	7	19	2	1	9	20	
	8	22	2	1	7	20	
	9	29	2	1	3	18	
64	1	3	1	4	11	26	
	2	7	1	3	10	22	
	3	12	1	3	10	19	
	4	13	1	3	9	16	
	5	19	1	2	9	15	
	6	20	1	2	9	10	
	7	21	1	2	8	9	
	8	26	1	2	8	7	
	9	29	1	2	8	2	
65	1	1	3	5	17	12	
	2	4	2	4	16	12	
	3	5	2	4	16	11	
	4	6	2	4	16	10	
	5	16	2	3	15	12	
	6	17	2	3	15	11	
	7	18	2	3	15	10	
	8	25	2	2	14	11	
	9	28	2	2	14	10	
66	1	1	5	1	17	20	
	2	5	4	1	17	20	
	3	7	4	1	17	18	
	4	10	3	1	16	17	
	5	15	3	1	16	16	
	6	21	3	1	16	15	
	7	22	3	1	15	16	
	8	25	2	1	15	14	
	9	26	2	1	15	13	
67	1	4	5	2	19	23	
	2	5	4	1	19	22	
	3	9	4	1	17	21	
	4	10	4	1	15	21	
	5	18	4	1	13	20	
	6	20	4	1	10	19	
	7	21	4	1	9	19	
	8	24	4	1	6	17	
	9	26	4	1	3	17	
68	1	1	2	1	25	4	
	2	2	2	1	23	3	
	3	7	2	1	21	3	
	4	14	2	1	19	3	
	5	18	2	1	17	3	
	6	22	1	1	15	2	
	7	28	1	1	14	2	
	8	29	1	1	13	2	
	9	30	1	1	12	2	
69	1	1	2	4	27	21	
	2	2	1	4	23	21	
	3	3	1	4	22	21	
	4	4	1	4	19	20	
	5	6	1	4	19	19	
	6	9	1	4	16	20	
	7	15	1	4	16	19	
	8	20	1	4	13	19	
	9	30	1	4	12	19	
70	1	1	3	2	30	25	
	2	4	3	2	29	23	
	3	13	3	2	29	22	
	4	14	3	2	29	21	
	5	22	3	2	28	22	
	6	23	3	2	28	21	
	7	24	3	2	28	20	
	8	29	3	2	28	19	
	9	30	3	2	28	18	
71	1	4	3	4	27	20	
	2	5	3	4	23	19	
	3	6	3	4	20	16	
	4	8	3	4	20	15	
	5	9	2	4	16	14	
	6	25	2	4	15	13	
	7	26	2	4	12	10	
	8	29	2	4	11	9	
	9	30	2	4	7	9	
72	1	5	3	4	26	14	
	2	7	3	4	20	14	
	3	8	3	4	20	13	
	4	10	3	4	15	12	
	5	11	3	4	13	11	
	6	12	3	4	10	11	
	7	15	3	4	7	11	
	8	25	3	4	6	10	
	9	29	3	4	2	9	
73	1	2	4	4	18	16	
	2	6	4	4	17	16	
	3	8	4	4	17	15	
	4	11	4	4	17	14	
	5	12	4	4	17	13	
	6	14	4	4	17	12	
	7	15	4	4	17	11	
	8	18	4	4	17	10	
	9	26	4	4	17	9	
74	1	7	5	3	18	17	
	2	8	4	3	16	17	
	3	10	4	3	15	15	
	4	13	4	3	11	14	
	5	17	4	2	10	13	
	6	23	4	2	9	13	
	7	27	4	1	6	11	
	8	29	4	1	3	10	
	9	30	4	1	1	10	
75	1	5	3	4	11	17	
	2	6	3	3	9	16	
	3	9	3	3	8	16	
	4	14	3	3	7	15	
	5	20	2	3	7	14	
	6	23	2	3	6	14	
	7	24	1	3	6	14	
	8	27	1	3	4	13	
	9	30	1	3	4	12	
76	1	1	2	4	21	26	
	2	4	2	4	21	22	
	3	6	2	4	19	22	
	4	10	2	4	18	20	
	5	13	2	3	18	15	
	6	22	2	3	16	14	
	7	23	2	2	15	11	
	8	24	2	2	15	8	
	9	29	2	2	14	5	
77	1	8	4	4	24	24	
	2	9	4	4	22	23	
	3	10	3	4	20	22	
	4	13	3	4	18	22	
	5	14	2	4	16	20	
	6	17	2	4	15	20	
	7	18	2	4	12	18	
	8	27	1	4	9	17	
	9	28	1	4	9	16	
78	1	1	5	4	13	22	
	2	5	4	3	12	22	
	3	8	4	3	12	21	
	4	10	4	3	12	20	
	5	14	4	2	10	19	
	6	16	4	2	10	18	
	7	25	4	2	10	17	
	8	26	4	2	8	15	
	9	29	4	2	8	14	
79	1	2	4	2	20	28	
	2	10	4	2	18	26	
	3	13	4	2	17	25	
	4	14	3	2	14	24	
	5	17	3	2	12	24	
	6	18	2	2	12	23	
	7	23	2	2	9	22	
	8	25	1	2	9	21	
	9	26	1	2	7	19	
80	1	2	5	3	11	14	
	2	6	4	3	10	13	
	3	7	4	3	10	12	
	4	8	3	3	8	11	
	5	13	3	3	8	10	
	6	17	3	2	8	10	
	7	18	2	2	7	10	
	8	24	2	2	6	10	
	9	30	2	2	5	9	
81	1	1	2	4	6	19	
	2	2	2	4	5	16	
	3	7	2	3	4	15	
	4	13	2	3	4	14	
	5	14	2	3	3	12	
	6	15	1	2	3	12	
	7	16	1	2	3	11	
	8	21	1	1	2	9	
	9	22	1	1	2	8	
82	1	3	4	5	22	9	
	2	8	3	4	21	9	
	3	10	3	4	20	9	
	4	11	2	4	20	9	
	5	17	2	4	18	8	
	6	18	2	3	16	8	
	7	23	2	3	15	7	
	8	26	1	3	14	7	
	9	27	1	3	13	7	
83	1	3	4	3	22	23	
	2	4	4	3	21	22	
	3	7	4	3	18	20	
	4	8	4	3	16	19	
	5	9	4	3	13	17	
	6	13	4	3	13	16	
	7	22	4	3	9	14	
	8	24	4	3	8	14	
	9	25	4	3	5	13	
84	1	4	2	4	25	28	
	2	5	2	4	25	27	
	3	12	2	4	25	26	
	4	13	2	4	24	27	
	5	21	2	4	24	26	
	6	22	2	3	24	27	
	7	25	2	3	23	27	
	8	28	2	3	23	26	
	9	29	2	3	23	25	
85	1	2	4	5	30	26	
	2	3	4	4	29	23	
	3	8	4	4	28	21	
	4	17	4	4	28	17	
	5	19	3	4	27	15	
	6	22	3	3	27	13	
	7	24	3	3	27	10	
	8	25	3	3	26	9	
	9	30	3	3	26	7	
86	1	9	1	1	10	13	
	2	11	1	1	9	11	
	3	14	1	1	9	10	
	4	15	1	1	8	9	
	5	17	1	1	8	8	
	6	18	1	1	8	7	
	7	21	1	1	7	6	
	8	23	1	1	7	5	
	9	27	1	1	7	4	
87	1	6	2	5	13	24	
	2	7	2	4	12	23	
	3	8	2	3	11	23	
	4	11	2	3	10	23	
	5	13	1	3	9	22	
	6	18	1	2	8	22	
	7	27	1	2	7	22	
	8	29	1	1	6	22	
	9	30	1	1	4	22	
88	1	1	3	2	26	27	
	2	2	2	2	24	26	
	3	9	2	2	22	26	
	4	10	2	2	20	26	
	5	11	2	2	17	25	
	6	15	2	2	16	24	
	7	24	2	2	15	24	
	8	25	2	2	12	23	
	9	26	2	2	11	22	
89	1	10	3	3	19	26	
	2	11	3	3	17	22	
	3	12	3	3	16	22	
	4	13	3	3	16	20	
	5	14	2	3	15	16	
	6	15	2	3	13	14	
	7	18	2	3	12	13	
	8	22	2	3	11	11	
	9	23	2	3	10	10	
90	1	3	2	3	5	16	
	2	8	2	3	4	15	
	3	9	2	3	4	14	
	4	10	2	3	3	14	
	5	11	2	2	3	13	
	6	18	2	2	2	10	
	7	23	2	2	1	10	
	8	24	2	2	1	9	
	9	27	2	2	1	8	
91	1	8	4	5	24	22	
	2	12	4	4	22	20	
	3	19	3	4	22	17	
	4	20	3	4	22	16	
	5	21	3	3	21	12	
	6	22	2	3	21	12	
	7	23	1	3	20	9	
	8	24	1	2	20	6	
	9	29	1	2	19	4	
92	1	9	3	4	15	17	
	2	13	2	4	13	17	
	3	15	2	4	11	16	
	4	20	2	4	11	13	
	5	21	2	4	9	13	
	6	25	2	4	9	10	
	7	26	2	4	8	10	
	8	28	2	4	7	8	
	9	30	2	4	5	6	
93	1	3	5	4	27	25	
	2	4	4	4	25	21	
	3	10	4	4	25	19	
	4	12	4	4	23	16	
	5	15	3	3	22	12	
	6	19	3	3	21	11	
	7	26	3	3	19	6	
	8	28	2	2	18	6	
	9	29	2	2	17	3	
94	1	3	3	4	29	17	
	2	6	3	4	28	16	
	3	7	3	4	26	13	
	4	8	3	3	26	13	
	5	12	3	2	24	10	
	6	16	3	2	24	9	
	7	18	3	2	23	7	
	8	21	3	1	22	5	
	9	23	3	1	21	3	
95	1	1	4	5	9	22	
	2	2	3	4	8	21	
	3	5	3	4	6	21	
	4	11	3	4	5	20	
	5	13	3	3	5	19	
	6	16	3	3	3	18	
	7	24	3	3	3	17	
	8	29	3	2	2	16	
	9	30	3	2	1	16	
96	1	2	4	2	26	28	
	2	5	3	2	24	23	
	3	7	3	2	24	20	
	4	8	3	2	23	18	
	5	15	2	2	23	16	
	6	16	2	2	22	15	
	7	18	2	2	22	10	
	8	29	1	2	21	10	
	9	30	1	2	20	6	
97	1	6	4	5	7	27	
	2	13	3	4	6	27	
	3	14	3	4	6	26	
	4	20	3	4	6	25	
	5	22	3	4	5	25	
	6	23	3	4	5	24	
	7	26	3	4	5	23	
	8	26	3	4	4	24	
	9	27	3	4	4	23	
98	1	3	1	3	14	17	
	2	6	1	3	14	16	
	3	7	1	3	14	15	
	4	11	1	3	14	14	
	5	12	1	3	13	13	
	6	16	1	3	13	11	
	7	17	1	3	13	8	
	8	26	1	3	12	7	
	9	28	1	3	12	6	
99	1	3	3	2	26	16	
	2	11	3	2	26	13	
	3	12	3	2	25	12	
	4	16	2	2	25	12	
	5	18	2	2	24	8	
	6	19	2	1	24	8	
	7	21	2	1	23	7	
	8	28	1	1	23	4	
	9	29	1	1	22	3	
100	1	2	2	3	30	21	
	2	3	2	3	29	18	
	3	4	2	3	29	17	
	4	5	2	3	29	15	
	5	6	2	3	29	14	
	6	11	2	3	29	10	
	7	20	2	3	29	9	
	8	23	2	3	29	6	
	9	24	2	3	29	5	
101	1	3	2	4	17	24	
	2	6	2	4	17	23	
	3	13	2	4	16	24	
	4	22	2	4	13	24	
	5	23	2	4	13	23	
	6	24	2	3	10	23	
	7	27	2	3	8	23	
	8	29	2	3	8	22	
	9	30	2	3	6	23	
102	1	0	0	0	0	0	
************************************************************************

 RESOURCE AVAILABILITIES 
	R 1	R 2	N 1	N 2
	43	41	1565	1627

************************************************************************
